objective value:                                  -10
t_n_3                                               1 	(obj:-1)
t_n_108                                             1 	(obj:-1)
t_n_219                                             1 	(obj:-1)
t_n_281                                             1 	(obj:-1)
t_n_537                                             1 	(obj:-1)
t_n_569                                             1 	(obj:-1)
t_n_730                                             1 	(obj:-1)
t_n_844                                             1 	(obj:-1)
t_n_853                                             1 	(obj:-1)
t_n_969                                             1 	(obj:-1)
